instances/p1/p1_15_3-1.dzn
Alphabet = {A,C,G,T};
ns = 15;
nc = 3;
neighbours = [| I(A),I(A),I(A) | I(A),I(C),I(A) | I(C),I(A),I(A) | I(C),I(A),I(C) | I(A),I(A),I(A) | I(A),I(A),I(A) | I(C),I(A),I(C) | I(A),I(A),I(A) | I(C),I(A),I(C) | I(A),I(G),I(A) | I(A),I(G),I(G) | I(A),I(C),I(A) | I(A),I(C),I(A) | I(A),I(A),I(A) | I(A),I(C),I(A) |];
