instances/p1/p1_15_3-1.txt
{
	"num_strings": 15,
	"alphabet": "ACGT",
	"strings": [
		"AAA",
		"ACA",
		"CAA",
		"CAC",
		"AAA",
		"AAA",
		"CAC",
		"AAA",
		"CAC",
		"AGA",
		"AGG",
		"ACA",
		"ACA",
		"AAA",
		"ACA"
	],
	"str_length":[3,3,3,3,3,3,3,3,3,3,3,3,3,3,3]
}